Version identifier: 20.1.0.0 | 2020-11-10 | 9bedb6d68
Tried aggregator 2 times.
MIP Presolve eliminated 1805 rows and 916 columns.
MIP Presolve modified 4734 coefficients.
Aggregator did 196 substitutions.
Reduced MIP has 2808 rows, 2203 columns, and 9226 nonzeros.
Reduced MIP has 450 binaries, 1753 generals, 0 SOSs, and 0 indicators.
Presolve time = 0.02 sec. (10.78 ticks)
Probing fixed 60 vars, tightened 740 bounds.
Probing time = 0.00 sec. (2.05 ticks)
Tried aggregator 1 time.
Detecting symmetries...
MIP Presolve eliminated 1170 rows and 60 columns.
MIP Presolve modified 185 coefficients.
Reduced MIP has 1638 rows, 2143 columns, and 5356 nonzeros.
Reduced MIP has 712 binaries, 1431 generals, 0 SOSs, and 0 indicators.
Presolve time = 0.01 sec. (6.18 ticks)
Probing time = 0.00 sec. (0.44 ticks)
Clique table members: 5.
MIP emphasis: balance optimality and feasibility.
MIP search method: dynamic search.
Parallel mode: deterministic, using up to 24 threads.
Root relaxation solution time = 0.02 sec. (4.66 ticks)

        Nodes                                         Cuts/
   Node  Left     Objective  IInf  Best Integer    Best Bound    ItCnt     Gap

*     0+    0                           54.0000        0.0000           100.00%
      0     0        0.0000    76       54.0000        0.0000      410  100.00%
      0     0        0.0000   105       54.0000     Cuts: 233      568  100.00%
*     0+    0                           25.0000        0.0000           100.00%
*     0+    0                           16.0000        0.0000           100.00%
      0     0        0.0000    55       16.0000      Cuts: 71      700   62.50%
      0     0        0.0000    85       16.0000      Cuts: 79      746   62.50%
*     0+    0                           15.0000        6.0000            60.00%
      0     0        cutoff             15.0000       15.0000      746    0.00%
Elapsed time = 1.04 sec. (200.93 ticks, tree = 0.01 MB, solutions = 4)

Implied bound cuts applied:  89
Flow cuts applied:  4
Mixed integer rounding cuts applied:  8
Zero-half cuts applied:  66
Lift and project cuts applied:  21
Gomory fractional cuts applied:  38

Root node processing (before b&c):
  Real time             =    1.04 sec. (201.12 ticks)
Parallel b&c, 24 threads:
  Real time             =    0.00 sec. (0.00 ticks)
  Sync time (average)   =    0.00 sec.
  Wait time (average)   =    0.00 sec.
                          ------------
Total (root+branch&cut) =    1.04 sec. (201.12 ticks)

Solution status = Optimal
Solution LB = 15
Solution UB = 15
Runtime = 1.04702 seconds
	Command being timed: "/home/min/git_repos/CS598MEBProject/CNT-ILP/build/cnt -s 2 ./output/k8_n30/simC_c1_k8_n30_u3_s3_del02.input-left.cnp"
	User time (seconds): 14.75
	System time (seconds): 0.12
	Percent of CPU this job got: 1342%
	Elapsed (wall clock) time (h:mm:ss or m:ss): 0:01.10
	Average shared text size (kbytes): 0
	Average unshared data size (kbytes): 0
	Average stack size (kbytes): 0
	Average total size (kbytes): 0
	Maximum resident set size (kbytes): 139724
	Average resident set size (kbytes): 0
	Major (requiring I/O) page faults: 0
	Minor (reclaiming a frame) page faults: 33298
	Voluntary context switches: 6205
	Involuntary context switches: 2039
	Swaps: 0
	File system inputs: 96
	File system outputs: 16
	Socket messages sent: 0
	Socket messages received: 0
	Signals delivered: 0
	Page size (bytes): 4096
	Exit status: 0
